<number of tasks>
20


<number of equipment>
5


<cycle time>
1000


<investment costs>
1,10963
2,11041
3,5311
4,16854
5,26738


<task times>
1,575,-1,-1,-1,473
2,-1,509,618,-1,372
3,504,-1,-1,-1,379
4,578,-1,-1,497,424
5,553,-1,-1,516,444
6,-1,475,543,-1,338
7,-1,587,661,-1,383
8,-1,582,634,-1,390
9,576,-1,-1,-1,374
10,573,-1,-1,500,441
11,-1,574,631,-1,448
12,-1,552,566,-1,390
13,-1,568,566,-1,437
14,-1,555,605,-1,373
15,-1,453,608,-1,352
16,577,-1,-1,523,422
17,456,-1,-1,492,376
18,529,-1,-1,477,367
19,572,-1,-1,497,360
20,-1,354,636,-1,354


<precedence relations>
1,6
1,7
1,8
1,9
2,10
6,11
7,13
8,12
8,14
8,15
11,18
12,16
13,18
14,17
16,19
17,19
18,20


<task types>
1,1
2,3
3,1
4,2
5,2
6,3
7,3
8,3
9,1
10,2
11,3
12,3
13,3
14,3
15,3
16,2
17,2
18,2
19,2
20,3


<line depot>
1,10
2,0
3,10
4,0
5,0


<processing costs>
1,14400
2,7200
3,7200
4,7200
5,21600


<saving costs>
1,1096
2,1104
3,531
4,1685
5,2673


<end>
